seed= 2052018 ;
N= 10 ;
M= 2 ;
F= 2 ;
K= 3 ;
T= 12 ;

p=[ 2 2 2 2 2 2 2 2 2 2 ];
r=[ 0 1 0 2 0 2 0 2 2 2 ];
d=[ 2 1 1 2 2 2 0 5 4 5 ];
s=[ 1 1 1 1 1 1 1 1 1 1 ];
w=[ 2 5 1 1 5 4 1 3 5 5 ];
f=[ 1 1 1 1 1 2 2 2 2 2 ];

e1=[ 10 10 10 10 10 10 8 8 8 8 8 8 ];
e2=[ 10 10 10 10 9 9 8 8 8 8 9 9 ];